NAME: tsp30-26
TYPE: TSP
DIMENSION: 30
EDGE_WEIGHT_TYPE: EUC_2D
NODE_COORD_SECTION
0 45 63
1 35 63
2 45 5
3 58 4
4 81 87
5 3 74
6 40 54
7 88 9
8 17 14
9 100 45
10 11 66
11 36 88
12 59 49
13 34 2
14 20 81
15 62 56
16 7 62
17 25 52
18 7 26
19 20 64
20 32 85
21 46 100
22 8 91
23 58 8
24 96 0
25 21 47
26 32 37
27 36 39
28 49 37
29 1 89
EOF